10J3M/DAT/10J3MNLL-6.dat
10 3
27.7069 27.7069
14.045 14.045
30.3428 30.3428
25.2705 25.2705
26.8697 26.8697
18.2164 18.2164
21.8993 21.8993
18.7749 18.7749
22.5612 22.5612
20.7419 20.7419
75.4762