10J3M/SOL/10J3MNLL-6.sol
solution status: optimal solution found
objective value:                     82.1430666666667
x#1#2                               0.685270368792651 	(obj:0)
x#1#3                               0.314729631207349 	(obj:0)
x#2#1                                               1 	(obj:0)
x#3#2                                               1 	(obj:0)
x#4#3                                               1 	(obj:0)
x#5#1                               0.411415064482949 	(obj:0)
x#5#2                                0.58858493551705 	(obj:0)
x#6#2                                               1 	(obj:0)
x#7#3                                               1 	(obj:0)
x#8#1                                               1 	(obj:0)
x#9#3                                               1 	(obj:0)
x#10#1                                              1 	(obj:0)
z                                    82.1430666666667 	(obj:1)
